g3 6 1 0	# problem steelT3
 36 12 1 0 8	# vars, constraints, objectives, ranges, eqns
 0 0	# nonlinear constraints, objectives
 0 0	# network constraints: nonlinear, linear
 0 0 0	# nonlinear vars in constraints, objectives, both
 0 0 0 1	# linear network variables; functions; arith, flags
 0 0 0 0 0	# discrete variables: binary, integer, nonlinear (b,c,o)
 50 36	# nonzeros in Jacobian, gradients
 0 0	# max name lengths: constraints, variables
 0 0 0 0 0	# common exprs: b,c,o,c1,o1
C0
n0
C1
n0
C2
n0
C3
n0
C4
n0
C5
n0
C6
n0
C7
n0
C8
n0
C9
n0
C10
n0
C11
n0
O0 1
n0
r
1 40
1 40
1 32
1 40
4 -10
4 0
4 0
4 0
4 0
4 0
4 0
4 0
b
2 0
2 0
2 0
2 0
2 0
2 0
2 0
2 0
2 0
2 0
2 0
2 0
2 0
2 0
2 0
2 0
0 0 2000
0 0 2000
0 0 1500
0 0 2000
0 0 4000
0 0 4000
0 0 2500
0 0 4500
0 0 1000
0 0 800
0 0 1000
0 0 1100
0 0 2000
0 0 1200
0 0 2000
0 0 2300
0 0 1000
0 0 500
0 0 500
0 0 800
k35
2
4
6
8
10
12
14
16
18
20
22
23
25
27
29
30
31
32
33
34
35
36
37
38
39
40
41
42
43
44
45
46
47
48
49
J0 2
0 0.005
4 0.007142857142857143
J1 2
1 0.005
5 0.007142857142857143
J2 2
2 0.005
6 0.007142857142857143
J3 2
3 0.005
7 0.007142857142857143
J4 4
0 1
8 -1
16 -1
20 -1
J5 5
1 1
8 1
9 -1
17 -1
21 -1
J6 5
2 1
9 1
10 -1
18 -1
22 -1
J7 5
3 1
10 1
11 -1
19 -1
23 -1
J8 5
4 1
12 -1
24 -1
28 -1
32 -1
J9 6
5 1
12 1
13 -1
25 -1
29 -1
33 -1
J10 6
6 1
13 1
14 -1
26 -1
30 -1
34 -1
J11 6
7 1
14 1
15 -1
27 -1
31 -1
35 -1
G0 36
0 -10
1 -10
2 -10
3 -10
4 -11
5 -11
6 -11
7 -11
8 -2.5
9 -2.5
10 -2.5
11 -2.5
12 -3
13 -3
14 -3
15 -3
16 25
17 26
18 27
19 27
20 26.5
21 27.5
22 28
23 28.5
24 30
25 35
26 37
27 39
28 29
29 32
30 33
31 35
32 25
33 25
34 25
35 28
